c *********************************
c * Circuit generated by BenCGen
c *
c * RippleCarryAdder_67_67_67_InOutT
c *
c * Ports with 1 gate(s): 1
c * Ports with 2 gate(s): 336
c * Total gates: 337
c *********************************
p cnf 471 1144
1 204 0
-1 -204 0
1 -203 0
204 -203 0
-1 -204 203 0
1 68 -206 0
-1 68 206 0
1 -68 206 0
-1 -68 -206 0
206 203 -135 0
-206 203 135 0
206 -203 135 0
-206 -203 -135 0
203 -207 0
206 -207 0
-203 -206 207 0
68 -208 0
1 -208 0
-68 -1 208 0
-207 205 0
-208 205 0
207 208 -205 0
2 69 -210 0
-2 69 210 0
2 -69 210 0
-2 -69 -210 0
210 205 -136 0
-210 205 136 0
210 -205 136 0
-210 -205 -136 0
205 -211 0
210 -211 0
-205 -210 211 0
69 -212 0
2 -212 0
-69 -2 212 0
-211 209 0
-212 209 0
211 212 -209 0
3 70 -214 0
-3 70 214 0
3 -70 214 0
-3 -70 -214 0
214 209 -137 0
-214 209 137 0
214 -209 137 0
-214 -209 -137 0
209 -215 0
214 -215 0
-209 -214 215 0
70 -216 0
3 -216 0
-70 -3 216 0
-215 213 0
-216 213 0
215 216 -213 0
4 71 -218 0
-4 71 218 0
4 -71 218 0
-4 -71 -218 0
218 213 -138 0
-218 213 138 0
218 -213 138 0
-218 -213 -138 0
213 -219 0
218 -219 0
-213 -218 219 0
71 -220 0
4 -220 0
-71 -4 220 0
-219 217 0
-220 217 0
219 220 -217 0
5 72 -222 0
-5 72 222 0
5 -72 222 0
-5 -72 -222 0
222 217 -139 0
-222 217 139 0
222 -217 139 0
-222 -217 -139 0
217 -223 0
222 -223 0
-217 -222 223 0
72 -224 0
5 -224 0
-72 -5 224 0
-223 221 0
-224 221 0
223 224 -221 0
6 73 -226 0
-6 73 226 0
6 -73 226 0
-6 -73 -226 0
226 221 -140 0
-226 221 140 0
226 -221 140 0
-226 -221 -140 0
221 -227 0
226 -227 0
-221 -226 227 0
73 -228 0
6 -228 0
-73 -6 228 0
-227 225 0
-228 225 0
227 228 -225 0
7 74 -230 0
-7 74 230 0
7 -74 230 0
-7 -74 -230 0
230 225 -141 0
-230 225 141 0
230 -225 141 0
-230 -225 -141 0
225 -231 0
230 -231 0
-225 -230 231 0
74 -232 0
7 -232 0
-74 -7 232 0
-231 229 0
-232 229 0
231 232 -229 0
8 75 -234 0
-8 75 234 0
8 -75 234 0
-8 -75 -234 0
234 229 -142 0
-234 229 142 0
234 -229 142 0
-234 -229 -142 0
229 -235 0
234 -235 0
-229 -234 235 0
75 -236 0
8 -236 0
-75 -8 236 0
-235 233 0
-236 233 0
235 236 -233 0
9 76 -238 0
-9 76 238 0
9 -76 238 0
-9 -76 -238 0
238 233 -143 0
-238 233 143 0
238 -233 143 0
-238 -233 -143 0
233 -239 0
238 -239 0
-233 -238 239 0
76 -240 0
9 -240 0
-76 -9 240 0
-239 237 0
-240 237 0
239 240 -237 0
10 77 -242 0
-10 77 242 0
10 -77 242 0
-10 -77 -242 0
242 237 -144 0
-242 237 144 0
242 -237 144 0
-242 -237 -144 0
237 -243 0
242 -243 0
-237 -242 243 0
77 -244 0
10 -244 0
-77 -10 244 0
-243 241 0
-244 241 0
243 244 -241 0
11 78 -246 0
-11 78 246 0
11 -78 246 0
-11 -78 -246 0
246 241 -145 0
-246 241 145 0
246 -241 145 0
-246 -241 -145 0
241 -247 0
246 -247 0
-241 -246 247 0
78 -248 0
11 -248 0
-78 -11 248 0
-247 245 0
-248 245 0
247 248 -245 0
12 79 -250 0
-12 79 250 0
12 -79 250 0
-12 -79 -250 0
250 245 -146 0
-250 245 146 0
250 -245 146 0
-250 -245 -146 0
245 -251 0
250 -251 0
-245 -250 251 0
79 -252 0
12 -252 0
-79 -12 252 0
-251 249 0
-252 249 0
251 252 -249 0
13 80 -254 0
-13 80 254 0
13 -80 254 0
-13 -80 -254 0
254 249 -147 0
-254 249 147 0
254 -249 147 0
-254 -249 -147 0
249 -255 0
254 -255 0
-249 -254 255 0
80 -256 0
13 -256 0
-80 -13 256 0
-255 253 0
-256 253 0
255 256 -253 0
14 81 -258 0
-14 81 258 0
14 -81 258 0
-14 -81 -258 0
258 253 -148 0
-258 253 148 0
258 -253 148 0
-258 -253 -148 0
253 -259 0
258 -259 0
-253 -258 259 0
81 -260 0
14 -260 0
-81 -14 260 0
-259 257 0
-260 257 0
259 260 -257 0
15 82 -262 0
-15 82 262 0
15 -82 262 0
-15 -82 -262 0
262 257 -149 0
-262 257 149 0
262 -257 149 0
-262 -257 -149 0
257 -263 0
262 -263 0
-257 -262 263 0
82 -264 0
15 -264 0
-82 -15 264 0
-263 261 0
-264 261 0
263 264 -261 0
16 83 -266 0
-16 83 266 0
16 -83 266 0
-16 -83 -266 0
266 261 -150 0
-266 261 150 0
266 -261 150 0
-266 -261 -150 0
261 -267 0
266 -267 0
-261 -266 267 0
83 -268 0
16 -268 0
-83 -16 268 0
-267 265 0
-268 265 0
267 268 -265 0
17 84 -270 0
-17 84 270 0
17 -84 270 0
-17 -84 -270 0
270 265 -151 0
-270 265 151 0
270 -265 151 0
-270 -265 -151 0
265 -271 0
270 -271 0
-265 -270 271 0
84 -272 0
17 -272 0
-84 -17 272 0
-271 269 0
-272 269 0
271 272 -269 0
18 85 -274 0
-18 85 274 0
18 -85 274 0
-18 -85 -274 0
274 269 -152 0
-274 269 152 0
274 -269 152 0
-274 -269 -152 0
269 -275 0
274 -275 0
-269 -274 275 0
85 -276 0
18 -276 0
-85 -18 276 0
-275 273 0
-276 273 0
275 276 -273 0
19 86 -278 0
-19 86 278 0
19 -86 278 0
-19 -86 -278 0
278 273 -153 0
-278 273 153 0
278 -273 153 0
-278 -273 -153 0
273 -279 0
278 -279 0
-273 -278 279 0
86 -280 0
19 -280 0
-86 -19 280 0
-279 277 0
-280 277 0
279 280 -277 0
20 87 -282 0
-20 87 282 0
20 -87 282 0
-20 -87 -282 0
282 277 -154 0
-282 277 154 0
282 -277 154 0
-282 -277 -154 0
277 -283 0
282 -283 0
-277 -282 283 0
87 -284 0
20 -284 0
-87 -20 284 0
-283 281 0
-284 281 0
283 284 -281 0
21 88 -286 0
-21 88 286 0
21 -88 286 0
-21 -88 -286 0
286 281 -155 0
-286 281 155 0
286 -281 155 0
-286 -281 -155 0
281 -287 0
286 -287 0
-281 -286 287 0
88 -288 0
21 -288 0
-88 -21 288 0
-287 285 0
-288 285 0
287 288 -285 0
22 89 -290 0
-22 89 290 0
22 -89 290 0
-22 -89 -290 0
290 285 -156 0
-290 285 156 0
290 -285 156 0
-290 -285 -156 0
285 -291 0
290 -291 0
-285 -290 291 0
89 -292 0
22 -292 0
-89 -22 292 0
-291 289 0
-292 289 0
291 292 -289 0
23 90 -294 0
-23 90 294 0
23 -90 294 0
-23 -90 -294 0
294 289 -157 0
-294 289 157 0
294 -289 157 0
-294 -289 -157 0
289 -295 0
294 -295 0
-289 -294 295 0
90 -296 0
23 -296 0
-90 -23 296 0
-295 293 0
-296 293 0
295 296 -293 0
24 91 -298 0
-24 91 298 0
24 -91 298 0
-24 -91 -298 0
298 293 -158 0
-298 293 158 0
298 -293 158 0
-298 -293 -158 0
293 -299 0
298 -299 0
-293 -298 299 0
91 -300 0
24 -300 0
-91 -24 300 0
-299 297 0
-300 297 0
299 300 -297 0
25 92 -302 0
-25 92 302 0
25 -92 302 0
-25 -92 -302 0
302 297 -159 0
-302 297 159 0
302 -297 159 0
-302 -297 -159 0
297 -303 0
302 -303 0
-297 -302 303 0
92 -304 0
25 -304 0
-92 -25 304 0
-303 301 0
-304 301 0
303 304 -301 0
26 93 -306 0
-26 93 306 0
26 -93 306 0
-26 -93 -306 0
306 301 -160 0
-306 301 160 0
306 -301 160 0
-306 -301 -160 0
301 -307 0
306 -307 0
-301 -306 307 0
93 -308 0
26 -308 0
-93 -26 308 0
-307 305 0
-308 305 0
307 308 -305 0
27 94 -310 0
-27 94 310 0
27 -94 310 0
-27 -94 -310 0
310 305 -161 0
-310 305 161 0
310 -305 161 0
-310 -305 -161 0
305 -311 0
310 -311 0
-305 -310 311 0
94 -312 0
27 -312 0
-94 -27 312 0
-311 309 0
-312 309 0
311 312 -309 0
28 95 -314 0
-28 95 314 0
28 -95 314 0
-28 -95 -314 0
314 309 -162 0
-314 309 162 0
314 -309 162 0
-314 -309 -162 0
309 -315 0
314 -315 0
-309 -314 315 0
95 -316 0
28 -316 0
-95 -28 316 0
-315 313 0
-316 313 0
315 316 -313 0
29 96 -318 0
-29 96 318 0
29 -96 318 0
-29 -96 -318 0
318 313 -163 0
-318 313 163 0
318 -313 163 0
-318 -313 -163 0
313 -319 0
318 -319 0
-313 -318 319 0
96 -320 0
29 -320 0
-96 -29 320 0
-319 317 0
-320 317 0
319 320 -317 0
30 97 -322 0
-30 97 322 0
30 -97 322 0
-30 -97 -322 0
322 317 -164 0
-322 317 164 0
322 -317 164 0
-322 -317 -164 0
317 -323 0
322 -323 0
-317 -322 323 0
97 -324 0
30 -324 0
-97 -30 324 0
-323 321 0
-324 321 0
323 324 -321 0
31 98 -326 0
-31 98 326 0
31 -98 326 0
-31 -98 -326 0
326 321 -165 0
-326 321 165 0
326 -321 165 0
-326 -321 -165 0
321 -327 0
326 -327 0
-321 -326 327 0
98 -328 0
31 -328 0
-98 -31 328 0
-327 325 0
-328 325 0
327 328 -325 0
32 99 -330 0
-32 99 330 0
32 -99 330 0
-32 -99 -330 0
330 325 -166 0
-330 325 166 0
330 -325 166 0
-330 -325 -166 0
325 -331 0
330 -331 0
-325 -330 331 0
99 -332 0
32 -332 0
-99 -32 332 0
-331 329 0
-332 329 0
331 332 -329 0
33 100 -334 0
-33 100 334 0
33 -100 334 0
-33 -100 -334 0
334 329 -167 0
-334 329 167 0
334 -329 167 0
-334 -329 -167 0
329 -335 0
334 -335 0
-329 -334 335 0
100 -336 0
33 -336 0
-100 -33 336 0
-335 333 0
-336 333 0
335 336 -333 0
34 101 -338 0
-34 101 338 0
34 -101 338 0
-34 -101 -338 0
338 333 -168 0
-338 333 168 0
338 -333 168 0
-338 -333 -168 0
333 -339 0
338 -339 0
-333 -338 339 0
101 -340 0
34 -340 0
-101 -34 340 0
-339 337 0
-340 337 0
339 340 -337 0
35 102 -342 0
-35 102 342 0
35 -102 342 0
-35 -102 -342 0
342 337 -169 0
-342 337 169 0
342 -337 169 0
-342 -337 -169 0
337 -343 0
342 -343 0
-337 -342 343 0
102 -344 0
35 -344 0
-102 -35 344 0
-343 341 0
-344 341 0
343 344 -341 0
36 103 -346 0
-36 103 346 0
36 -103 346 0
-36 -103 -346 0
346 341 -170 0
-346 341 170 0
346 -341 170 0
-346 -341 -170 0
341 -347 0
346 -347 0
-341 -346 347 0
103 -348 0
36 -348 0
-103 -36 348 0
-347 345 0
-348 345 0
347 348 -345 0
37 104 -350 0
-37 104 350 0
37 -104 350 0
-37 -104 -350 0
350 345 -171 0
-350 345 171 0
350 -345 171 0
-350 -345 -171 0
345 -351 0
350 -351 0
-345 -350 351 0
104 -352 0
37 -352 0
-104 -37 352 0
-351 349 0
-352 349 0
351 352 -349 0
38 105 -354 0
-38 105 354 0
38 -105 354 0
-38 -105 -354 0
354 349 -172 0
-354 349 172 0
354 -349 172 0
-354 -349 -172 0
349 -355 0
354 -355 0
-349 -354 355 0
105 -356 0
38 -356 0
-105 -38 356 0
-355 353 0
-356 353 0
355 356 -353 0
39 106 -358 0
-39 106 358 0
39 -106 358 0
-39 -106 -358 0
358 353 -173 0
-358 353 173 0
358 -353 173 0
-358 -353 -173 0
353 -359 0
358 -359 0
-353 -358 359 0
106 -360 0
39 -360 0
-106 -39 360 0
-359 357 0
-360 357 0
359 360 -357 0
40 107 -362 0
-40 107 362 0
40 -107 362 0
-40 -107 -362 0
362 357 -174 0
-362 357 174 0
362 -357 174 0
-362 -357 -174 0
357 -363 0
362 -363 0
-357 -362 363 0
107 -364 0
40 -364 0
-107 -40 364 0
-363 361 0
-364 361 0
363 364 -361 0
41 108 -366 0
-41 108 366 0
41 -108 366 0
-41 -108 -366 0
366 361 -175 0
-366 361 175 0
366 -361 175 0
-366 -361 -175 0
361 -367 0
366 -367 0
-361 -366 367 0
108 -368 0
41 -368 0
-108 -41 368 0
-367 365 0
-368 365 0
367 368 -365 0
42 109 -370 0
-42 109 370 0
42 -109 370 0
-42 -109 -370 0
370 365 -176 0
-370 365 176 0
370 -365 176 0
-370 -365 -176 0
365 -371 0
370 -371 0
-365 -370 371 0
109 -372 0
42 -372 0
-109 -42 372 0
-371 369 0
-372 369 0
371 372 -369 0
43 110 -374 0
-43 110 374 0
43 -110 374 0
-43 -110 -374 0
374 369 -177 0
-374 369 177 0
374 -369 177 0
-374 -369 -177 0
369 -375 0
374 -375 0
-369 -374 375 0
110 -376 0
43 -376 0
-110 -43 376 0
-375 373 0
-376 373 0
375 376 -373 0
44 111 -378 0
-44 111 378 0
44 -111 378 0
-44 -111 -378 0
378 373 -178 0
-378 373 178 0
378 -373 178 0
-378 -373 -178 0
373 -379 0
378 -379 0
-373 -378 379 0
111 -380 0
44 -380 0
-111 -44 380 0
-379 377 0
-380 377 0
379 380 -377 0
45 112 -382 0
-45 112 382 0
45 -112 382 0
-45 -112 -382 0
382 377 -179 0
-382 377 179 0
382 -377 179 0
-382 -377 -179 0
377 -383 0
382 -383 0
-377 -382 383 0
112 -384 0
45 -384 0
-112 -45 384 0
-383 381 0
-384 381 0
383 384 -381 0
46 113 -386 0
-46 113 386 0
46 -113 386 0
-46 -113 -386 0
386 381 -180 0
-386 381 180 0
386 -381 180 0
-386 -381 -180 0
381 -387 0
386 -387 0
-381 -386 387 0
113 -388 0
46 -388 0
-113 -46 388 0
-387 385 0
-388 385 0
387 388 -385 0
47 114 -390 0
-47 114 390 0
47 -114 390 0
-47 -114 -390 0
390 385 -181 0
-390 385 181 0
390 -385 181 0
-390 -385 -181 0
385 -391 0
390 -391 0
-385 -390 391 0
114 -392 0
47 -392 0
-114 -47 392 0
-391 389 0
-392 389 0
391 392 -389 0
48 115 -394 0
-48 115 394 0
48 -115 394 0
-48 -115 -394 0
394 389 -182 0
-394 389 182 0
394 -389 182 0
-394 -389 -182 0
389 -395 0
394 -395 0
-389 -394 395 0
115 -396 0
48 -396 0
-115 -48 396 0
-395 393 0
-396 393 0
395 396 -393 0
49 116 -398 0
-49 116 398 0
49 -116 398 0
-49 -116 -398 0
398 393 -183 0
-398 393 183 0
398 -393 183 0
-398 -393 -183 0
393 -399 0
398 -399 0
-393 -398 399 0
116 -400 0
49 -400 0
-116 -49 400 0
-399 397 0
-400 397 0
399 400 -397 0
50 117 -402 0
-50 117 402 0
50 -117 402 0
-50 -117 -402 0
402 397 -184 0
-402 397 184 0
402 -397 184 0
-402 -397 -184 0
397 -403 0
402 -403 0
-397 -402 403 0
117 -404 0
50 -404 0
-117 -50 404 0
-403 401 0
-404 401 0
403 404 -401 0
51 118 -406 0
-51 118 406 0
51 -118 406 0
-51 -118 -406 0
406 401 -185 0
-406 401 185 0
406 -401 185 0
-406 -401 -185 0
401 -407 0
406 -407 0
-401 -406 407 0
118 -408 0
51 -408 0
-118 -51 408 0
-407 405 0
-408 405 0
407 408 -405 0
52 119 -410 0
-52 119 410 0
52 -119 410 0
-52 -119 -410 0
410 405 -186 0
-410 405 186 0
410 -405 186 0
-410 -405 -186 0
405 -411 0
410 -411 0
-405 -410 411 0
119 -412 0
52 -412 0
-119 -52 412 0
-411 409 0
-412 409 0
411 412 -409 0
53 120 -414 0
-53 120 414 0
53 -120 414 0
-53 -120 -414 0
414 409 -187 0
-414 409 187 0
414 -409 187 0
-414 -409 -187 0
409 -415 0
414 -415 0
-409 -414 415 0
120 -416 0
53 -416 0
-120 -53 416 0
-415 413 0
-416 413 0
415 416 -413 0
54 121 -418 0
-54 121 418 0
54 -121 418 0
-54 -121 -418 0
418 413 -188 0
-418 413 188 0
418 -413 188 0
-418 -413 -188 0
413 -419 0
418 -419 0
-413 -418 419 0
121 -420 0
54 -420 0
-121 -54 420 0
-419 417 0
-420 417 0
419 420 -417 0
55 122 -422 0
-55 122 422 0
55 -122 422 0
-55 -122 -422 0
422 417 -189 0
-422 417 189 0
422 -417 189 0
-422 -417 -189 0
417 -423 0
422 -423 0
-417 -422 423 0
122 -424 0
55 -424 0
-122 -55 424 0
-423 421 0
-424 421 0
423 424 -421 0
56 123 -426 0
-56 123 426 0
56 -123 426 0
-56 -123 -426 0
426 421 -190 0
-426 421 190 0
426 -421 190 0
-426 -421 -190 0
421 -427 0
426 -427 0
-421 -426 427 0
123 -428 0
56 -428 0
-123 -56 428 0
-427 425 0
-428 425 0
427 428 -425 0
57 124 -430 0
-57 124 430 0
57 -124 430 0
-57 -124 -430 0
430 425 -191 0
-430 425 191 0
430 -425 191 0
-430 -425 -191 0
425 -431 0
430 -431 0
-425 -430 431 0
124 -432 0
57 -432 0
-124 -57 432 0
-431 429 0
-432 429 0
431 432 -429 0
58 125 -434 0
-58 125 434 0
58 -125 434 0
-58 -125 -434 0
434 429 -192 0
-434 429 192 0
434 -429 192 0
-434 -429 -192 0
429 -435 0
434 -435 0
-429 -434 435 0
125 -436 0
58 -436 0
-125 -58 436 0
-435 433 0
-436 433 0
435 436 -433 0
59 126 -438 0
-59 126 438 0
59 -126 438 0
-59 -126 -438 0
438 433 -193 0
-438 433 193 0
438 -433 193 0
-438 -433 -193 0
433 -439 0
438 -439 0
-433 -438 439 0
126 -440 0
59 -440 0
-126 -59 440 0
-439 437 0
-440 437 0
439 440 -437 0
60 127 -442 0
-60 127 442 0
60 -127 442 0
-60 -127 -442 0
442 437 -194 0
-442 437 194 0
442 -437 194 0
-442 -437 -194 0
437 -443 0
442 -443 0
-437 -442 443 0
127 -444 0
60 -444 0
-127 -60 444 0
-443 441 0
-444 441 0
443 444 -441 0
61 128 -446 0
-61 128 446 0
61 -128 446 0
-61 -128 -446 0
446 441 -195 0
-446 441 195 0
446 -441 195 0
-446 -441 -195 0
441 -447 0
446 -447 0
-441 -446 447 0
128 -448 0
61 -448 0
-128 -61 448 0
-447 445 0
-448 445 0
447 448 -445 0
62 129 -450 0
-62 129 450 0
62 -129 450 0
-62 -129 -450 0
450 445 -196 0
-450 445 196 0
450 -445 196 0
-450 -445 -196 0
445 -451 0
450 -451 0
-445 -450 451 0
129 -452 0
62 -452 0
-129 -62 452 0
-451 449 0
-452 449 0
451 452 -449 0
63 130 -454 0
-63 130 454 0
63 -130 454 0
-63 -130 -454 0
454 449 -197 0
-454 449 197 0
454 -449 197 0
-454 -449 -197 0
449 -455 0
454 -455 0
-449 -454 455 0
130 -456 0
63 -456 0
-130 -63 456 0
-455 453 0
-456 453 0
455 456 -453 0
64 131 -458 0
-64 131 458 0
64 -131 458 0
-64 -131 -458 0
458 453 -198 0
-458 453 198 0
458 -453 198 0
-458 -453 -198 0
453 -459 0
458 -459 0
-453 -458 459 0
131 -460 0
64 -460 0
-131 -64 460 0
-459 457 0
-460 457 0
459 460 -457 0
65 132 -462 0
-65 132 462 0
65 -132 462 0
-65 -132 -462 0
462 457 -199 0
-462 457 199 0
462 -457 199 0
-462 -457 -199 0
457 -463 0
462 -463 0
-457 -462 463 0
132 -464 0
65 -464 0
-132 -65 464 0
-463 461 0
-464 461 0
463 464 -461 0
66 133 -466 0
-66 133 466 0
66 -133 466 0
-66 -133 -466 0
466 461 -200 0
-466 461 200 0
466 -461 200 0
-466 -461 -200 0
461 -467 0
466 -467 0
-461 -466 467 0
133 -468 0
66 -468 0
-133 -66 468 0
-467 465 0
-468 465 0
467 468 -465 0
67 134 -469 0
-67 134 469 0
67 -134 469 0
-67 -134 -469 0
469 465 -201 0
-469 465 201 0
469 -465 201 0
-469 -465 -201 0
465 -470 0
469 -470 0
-465 -469 470 0
134 -471 0
67 -471 0
-134 -67 471 0
-470 202 0
-471 202 0
470 471 -202 0
